unsat
( c10
  c113
  c129
  c146
  c149
  c164
  c17
  c183
  c184
  c202
  c203
  c222
  c224
  c243
  c265
  c288
  c29
  c312
  c314
  c337
  c338
  c363
  c365
  c38
  c390
  c418
  c419
  c420
  c447
  c448
  c449
  c477
  c48
  c480
  c484
  c489
  c496
  c5
  c508
  c517
  c527
  c538
  c539
  c550
  c553
  c563
  c577
  c59
  c592
  c608
  c625
  c643
  c662
  c681
  c701
  c71
  c722
  c744
  c746
  c767
  c768
  c791
  c816
  c818
  c84
  c842
  c843
  c869
  c870
  c897
  c926
  c927
  c956
  c957
  c958
  c959
  c961
  c963
  c966
  c967
  c968
  c969
  c970
  c971
  c974
  c98 )
